
Gurobi 10.0.3 (linux64, gurobi_cl) logging started Thu Nov  2 11:34:09 2023

Set parameter Username
Set parameter TimeLimit to value 3600
Set parameter LogFile to value "RCPSP_430.log"
Set parameter Threads to value 32
Academic license - for non-commercial use only - expires 2024-10-30
Using license file /home/jrivera6/gurobi-licenses/v1003/compute-0-35/gurobi.lic

Gurobi Optimizer version 10.0.3 build v10.0.3rc0 (linux64)
Copyright (c) 2023, Gurobi Optimization, LLC

Read MPS format model from file RCPSP_430.mps
Reading time = 0.01 seconds
RCPSP_430: 5349 rows, 2080 columns, 17994 nonzeros

CPU model: Intel(R) Xeon(R) Gold 6130 CPU @ 2.10GHz, instruction set [SSE2|AVX|AVX2|AVX512]
Thread count: 32 physical cores, 32 logical processors, using up to 32 threads

Optimize a model with 5349 rows, 2080 columns and 17994 nonzeros
Model fingerprint: 0x49611cd7
Variable types: 32 continuous, 2048 integer (2048 binary)
Coefficient statistics:
  Matrix range     [1e+00, 2e+02]
  Objective range  [1e+00, 1e+00]
  Bounds range     [1e+00, 1e+00]
  RHS range        [1e+00, 2e+02]
Presolve removed 3353 rows and 1337 columns
Presolve time: 0.34s
Presolved: 1996 rows, 743 columns, 6545 nonzeros
Variable types: 31 continuous, 712 integer (712 binary)

Root relaxation: objective 5.900000e+01, 273 iterations, 0.00 seconds (0.00 work units)

    Nodes    |    Current Node    |     Objective Bounds      |     Work
 Expl Unexpl |  Obj  Depth IntInf | Incumbent    BestBd   Gap | It/Node Time

     0     0   59.00000    0    6          -   59.00000      -     -    0s
H    0     0                      60.0000000   59.00000  1.67%     -    0s
     0     0   59.00000    0   37   60.00000   59.00000  1.67%     -    0s
     0     0   59.00000    0    2   60.00000   59.00000  1.67%     -    3s
     0     0   59.00000    0   15   60.00000   59.00000  1.67%     -    3s
H    0     0                      59.9999990   59.00000  1.67%     -    3s
     0     0   60.00000    0   10   60.00000   60.00000  0.00%     -    3s

Cutting planes:
  Cover: 4
  Implied bound: 6
  Relax-and-lift: 1

Explored 1 nodes (1175 simplex iterations) in 4.06 seconds (0.33 work units)
Thread count was 32 (of 32 available processors)

Solution count 2: 60 60 

Optimal solution found (tolerance 1.00e-04)
Warning: max constraint violation (1.0000e-06) exceeds tolerance
Best objective 5.999999900000e+01, best bound 5.999999900000e+01, gap 0.0000%

Wrote result file 'RCPSP_430.sol'

